
%FILE DATA:	Soccer Computational Problem for MiniZinc Models	%
%AUTHOR:	Jack Wall	%
%CONTACT:  	116397063@umail.ucc.ie			%
%LAST UPDATE:	03/03/2020, 16:09:05						%
%DESCRIPTION: 	45 games played with 27 games left				%


n=9; %number of teams

%Games to play
games=[|2,4|8,6|8,3|3,5|3,2|9,8|1,8|3,7|4,2|7,9|6,8|7,2|1,6|9,7|6,5|6,1|2,8|3,8|7,6|8,4|8,7|6,2|3,9|1,5|7,1|1,9|4,7|];

%Initial points
iPoints=[14,15,12,25,21,3,9,6,18];

%POSITION CONSTRAINTS
% [|teamID, operator, position|...]
% operators index:
%  1 for =  operator
%  2 for >  operator
%  3 for >= operator
%  4 for <  operator
%  5 for <= operator
positionConstraints=[|4,5,1|1,3,2|5,2,2|3,1,4|9,1,5|];